p cnf 61 216
3 1 0
3 2 0
-1 -2 -3 0
-4 5 -6 0
4 -5 -6 0
-4 -5 6 0
4 5 6 0
7 1 -8 0
-7 -1 -8 0
7 -1 8 0
-7 1 8 0
9 6 0
9 8 0
-6 -8 -9 0
-11 -10 0
-11 -6 0
10 6 11 0
-12 -9 0
-12 -11 0
9 11 12 0
-13 -2 0
-13 -5 0
2 5 13 0
15 4 0
15 14 0
-4 -14 -15 0
-16 13 0
-16 -15 0
-13 15 16 0
17 12 0
17 16 0
-12 -16 -17 0
-18 3 0
-18 -17 0
-3 17 18 0
19 -10 0
19 -5 0
10 5 -19 0
20 5 0
20 5 0
-5 -20 0
-20 -21 -22 0
20 21 -22 0
-20 21 22 0
20 -21 22 0
23 7 0
23 4 0
-7 -4 -23 0
-24 -14 0
-24 6 0
14 -6 24 0
-23 24 -25 0
23 -24 -25 0
-23 -24 25 0
23 24 25 0
-22 -25 -26 0
22 25 -26 0
-22 25 26 0
22 -25 26 0
27 -19 0
27 26 0
19 -26 -27 0
18 -27 -28 0
-18 27 -28 0
18 27 28 0
-18 -27 28 0
29 -1 0
29 -7 0
1 7 -29 0
30 28 0
30 29 0
-28 -29 -30 0
-32 31 0
-32 6 0
-31 -6 32 0
-33 -14 0
-33 -1 0
14 1 33 0
-2 -24 -34 0
2 24 -34 0
-2 24 34 0
2 -24 34 0
35 -33 0
35 34 0
33 -34 -35 0
-36 -6 0
-36 -33 0
6 33 36 0
-37 15 0
-37 13 0
-15 -13 37 0
-36 37 -38 0
36 -37 -38 0
-36 -37 38 0
36 37 38 0
-39 1 0
-39 24 0
-1 -24 39 0
-40 38 0
-40 -39 0
-38 39 40 0
35 -40 -41 0
-35 40 -41 0
35 40 41 0
-35 -40 41 0
-42 -32 0
-42 41 0
32 -41 42 0
-43 24 0
-43 31 0
-24 -31 43 0
44 -20 0
44 -43 0
20 43 -44 0
-45 -24 0
-45 -34 0
24 34 45 0
46 44 0
46 -45 0
-44 45 -46 0
47 -14 0
47 23 0
14 -23 -47 0
48 13 0
48 1 0
-13 -1 -48 0
-1 10 -49 0
1 -10 -49 0
-1 -10 49 0
1 10 49 0
-50 49 0
-50 -13 0
-49 13 50 0
51 48 0
51 -50 0
-48 50 -51 0
52 -47 0
52 -51 0
47 51 -52 0
53 46 0
53 52 0
-46 -52 -53 0
-55 -54 0
-55 14 0
54 -14 55 0
56 -8 0
56 55 0
8 -55 -56 0
-57 -7 0
-57 24 0
7 -24 57 0
56 57 -58 0
-56 -57 -58 0
56 -57 58 0
-56 57 58 0
-59 -53 0
-59 -58 0
53 58 59 0
42 59 -60 0
-42 -59 -60 0
42 -59 60 0
-42 59 60 0
61 30 0
61 -60 0
-30 60 -61 0
-33 -7 52 2 0
11 -21 0
50 -21 -40 -46 0
43 -38 26 -13 0
-19 -55 0
25 -3 -54 0
49 50 30 47 -42 44 0
-13 -21 -43 0
-15 13 53 -29 -47 46 0
-53 -2 0
40 41 -2 0
43 50 25 12 0
-58 -8 -50 48 0
-11 -46 -21 0
46 34 50 0
-30 -20 -33 -36 -4 0
-12 -22 -41 0
21 12 0
50 -18 27 0
-57 -34 60 19 0
-7 57 -51 -19 28 61 0
32 15 -25 10 -58 0
5 -51 58 19 15 -32 0
-14 24 -43 -37 -16 0
-14 -53 -6 0
34 -46 -22 0
-8 -1 40 27 -39 0
24 59 -10 0
-14 -40 -21 -46 0
44 -52 -15 -31 0
-9 12 27 0
-17 38 0
12 9 24 40 34 -42 0
-21 29 -33 14 55 -30 0
51 -46 12 -7 42 31 0
6 13 -24 29 0
51 -60 -49 -28 0
-30 46 40 -34 33 0
61 -21 -12 -33 0
-45 16 14 50 33 0
49 54 17 -11 -57 0
-45 27 57 34 13 0
41 -26 -8 50 -7 0
44 -29 0
-41 31 0
-22 -4 53 0
-22 6 0
30 4 54 0
28 -39 -57 55 58 0
-26 -46 48 -3 18 0
61 0
